Minimize
 + 8.000000 x6 + 8.000000 x7 + 8.000000 x8 + 8.000000 x9 + 8.000000 x10 + 8.000000 x11 + 8.000000 x12 + 8.000000 x13 + 8.000000 x14 + 8.000000 x15 + 6.000000 x16 + 6.000000 x17 + 6.000000 x18 + 6.000000 x19 + 6.000000 x20 + 6.000000 x21 + 6.000000 x22 + 6.000000 x23 + 6.000000 x24 + 6.000000 x25 + 6.000000 x26 + 6.000000 x27 + 6.000000 x28 + 6.000000 x29 + 6.000000 x30 + 6.000000 x31 + 6.000000 x32 + 6.000000 x33 + 6.000000 x34 + 6.000000 x35 + 6.000000 x36 + 6.000000 x37 + 6.000000 x38 + 6.000000 x39 + 6.000000 x40
Subject To
 + y6,6 + y6,7 + y6,14 + y6,15 + y6,16 + y6,17 + y6,18 + y6,19 + y6,20 =  1
 + y7,6 + y7,7 + y7,8 + y7,16 + y7,17 + y7,18 + y7,19 + y7,20 =  1
 + y8,7 + y8,8 + y8,9 + y8,10 + y8,21 + y8,22 + y8,23 + y8,24 + y8,25 =  1
 + y9,8 + y9,9 + y9,10 + y9,11 + y9,21 + y9,22 + y9,23 + y9,24 + y9,25 + y9,26 + y9,27 =  1
 + y10,8 + y10,9 + y10,10 + y10,11 + y10,12 + y10,13 + y10,22 + y10,23 + y10,24 + y10,25 + y10,26 + y10,27 + y10,28 + y10,29 + y10,30 =  1
 + y11,9 + y11,10 + y11,11 + y11,12 + y11,13 + y11,26 + y11,27 + y11,28 + y11,29 + y11,30 =  1
 + y12,10 + y12,11 + y12,12 + y12,13 + y12,14 + y12,30 + y12,31 + y12,32 =  1
 + y13,10 + y13,11 + y13,12 + y13,13 + y13,14 + y13,15 + y13,33 + y13,34 + y13,35 + y13,36 + y13,37 + y13,38 =  1
 + y14,6 + y14,12 + y14,13 + y14,14 + y14,15 + y14,16 + y14,33 + y14,34 + y14,35 + y14,36 + y14,37 + y14,38 + y14,39 + y14,40 =  1
 + y15,6 + y15,13 + y15,14 + y15,15 + y15,16 + y15,36 + y15,37 + y15,38 + y15,39 + y15,40 =  1
 + y16,6 + y16,7 + y16,14 + y16,15 + y16,16 + y16,17 + y16,18 + y16,19 + y16,39 + y16,40 =  1
 + y17,6 + y17,7 + y17,16 + y17,17 + y17,18 + y17,19 =  1
 + y18,6 + y18,7 + y18,16 + y18,17 + y18,18 + y18,19 =  1
 + y19,6 + y19,7 + y19,16 + y19,17 + y19,18 + y19,19 + y19,20 =  1
 + y20,6 + y20,7 + y20,19 + y20,20 =  1
 + y21,8 + y21,9 + y21,21 + y21,22 =  1
 + y22,8 + y22,9 + y22,10 + y22,21 + y22,22 + y22,23 + y22,24 + y22,25 =  1
 + y23,8 + y23,9 + y23,10 + y23,22 + y23,23 + y23,24 + y23,25 =  1
 + y24,8 + y24,9 + y24,10 + y24,22 + y24,23 + y24,24 + y24,25 =  1
 + y25,8 + y25,9 + y25,10 + y25,22 + y25,23 + y25,24 + y25,25 =  1
 + y26,9 + y26,10 + y26,11 + y26,26 + y26,27 =  1
 + y27,9 + y27,10 + y27,11 + y27,26 + y27,27 + y27,28 + y27,29 + y27,30 =  1
 + y28,10 + y28,11 + y28,27 + y28,28 + y28,29 + y28,30 =  1
 + y29,10 + y29,11 + y29,27 + y29,28 + y29,29 + y29,30 =  1
 + y30,10 + y30,11 + y30,12 + y30,27 + y30,28 + y30,29 + y30,30 + y30,31 + y30,32 =  1
 + y31,12 + y31,30 + y31,31 + y31,32 =  1
 + y32,12 + y32,30 + y32,31 + y32,32 =  1
 + y33,13 + y33,14 + y33,33 + y33,34 + y33,35 =  1
 + y34,13 + y34,14 + y34,33 + y34,34 + y34,35 =  1
 + y35,13 + y35,14 + y35,33 + y35,34 + y35,35 =  1
 + y36,13 + y36,14 + y36,15 + y36,36 + y36,37 + y36,38 =  1
 + y37,13 + y37,14 + y37,15 + y37,36 + y37,37 + y37,38 =  1
 + y38,13 + y38,14 + y38,15 + y38,36 + y38,37 + y38,38 =  1
 + y39,14 + y39,15 + y39,16 + y39,39 + y39,40 =  1
 + y40,14 + y40,15 + y40,16 + y40,39 + y40,40 =  1
 + y6,6 - x6 <= 0
 + y6,7 - x7 <= 0
 + y6,14 - x14 <= 0
 + y6,15 - x15 <= 0
 + y6,16 - x16 <= 0
 + y6,17 - x17 <= 0
 + y6,18 - x18 <= 0
 + y6,19 - x19 <= 0
 + y6,20 - x20 <= 0
 - x40 = 1
 + y7,6 - x6 <= 0
 + y7,7 - x7 <= 0
 + y7,8 - x8 <= 0
 + y7,16 - x16 <= 0
 + y7,17 - x17 <= 0
 + y7,18 - x18 <= 0
 + y7,19 - x19 <= 0
 + y7,20 - x20 <= 0
 - x40 = 1
 + y8,7 - x7 <= 0
 + y8,8 - x8 <= 0
 + y8,9 - x9 <= 0
 + y8,10 - x10 <= 0
 + y8,21 - x21 <= 0
 + y8,22 - x22 <= 0
 + y8,23 - x23 <= 0
 + y8,24 - x24 <= 0
 + y8,25 - x25 <= 0
 - x40 = 1
 + y9,8 - x8 <= 0
 + y9,9 - x9 <= 0
 + y9,10 - x10 <= 0
 + y9,11 - x11 <= 0
 + y9,21 - x21 <= 0
 + y9,22 - x22 <= 0
 + y9,23 - x23 <= 0
 + y9,24 - x24 <= 0
 + y9,25 - x25 <= 0
 + y9,26 - x26 <= 0
 + y9,27 - x27 <= 0
 - x40 = 1
 + y10,8 - x8 <= 0
 + y10,9 - x9 <= 0
 + y10,10 - x10 <= 0
 + y10,11 - x11 <= 0
 + y10,12 - x12 <= 0
 + y10,13 - x13 <= 0
 + y10,22 - x22 <= 0
 + y10,23 - x23 <= 0
 + y10,24 - x24 <= 0
 + y10,25 - x25 <= 0
 + y10,26 - x26 <= 0
 + y10,27 - x27 <= 0
 + y10,28 - x28 <= 0
 + y10,29 - x29 <= 0
 + y10,30 - x30 <= 0
 - x40 = 1
 + y11,9 - x9 <= 0
 + y11,10 - x10 <= 0
 + y11,11 - x11 <= 0
 + y11,12 - x12 <= 0
 + y11,13 - x13 <= 0
 + y11,26 - x26 <= 0
 + y11,27 - x27 <= 0
 + y11,28 - x28 <= 0
 + y11,29 - x29 <= 0
 + y11,30 - x30 <= 0
 - x40 = 1
 + y12,10 - x10 <= 0
 + y12,11 - x11 <= 0
 + y12,12 - x12 <= 0
 + y12,13 - x13 <= 0
 + y12,14 - x14 <= 0
 + y12,30 - x30 <= 0
 + y12,31 - x31 <= 0
 + y12,32 - x32 <= 0
 - x40 = 1
 + y13,10 - x10 <= 0
 + y13,11 - x11 <= 0
 + y13,12 - x12 <= 0
 + y13,13 - x13 <= 0
 + y13,14 - x14 <= 0
 + y13,15 - x15 <= 0
 + y13,33 - x33 <= 0
 + y13,34 - x34 <= 0
 + y13,35 - x35 <= 0
 + y13,36 - x36 <= 0
 + y13,37 - x37 <= 0
 + y13,38 - x38 <= 0
 - x40 = 1
 + y14,6 - x6 <= 0
 + y14,12 - x12 <= 0
 + y14,13 - x13 <= 0
 + y14,14 - x14 <= 0
 + y14,15 - x15 <= 0
 + y14,16 - x16 <= 0
 + y14,33 - x33 <= 0
 + y14,34 - x34 <= 0
 + y14,35 - x35 <= 0
 + y14,36 - x36 <= 0
 + y14,37 - x37 <= 0
 + y14,38 - x38 <= 0
 + y14,39 - x39 <= 0
 + y14,40 - x40 <= 0
 - x40 = 1
 + y15,6 - x6 <= 0
 + y15,13 - x13 <= 0
 + y15,14 - x14 <= 0
 + y15,15 - x15 <= 0
 + y15,16 - x16 <= 0
 + y15,36 - x36 <= 0
 + y15,37 - x37 <= 0
 + y15,38 - x38 <= 0
 + y15,39 - x39 <= 0
 + y15,40 - x40 <= 0
 - x40 = 1
 + y16,6 - x6 <= 0
 + y16,7 - x7 <= 0
 + y16,14 - x14 <= 0
 + y16,15 - x15 <= 0
 + y16,16 - x16 <= 0
 + y16,17 - x17 <= 0
 + y16,18 - x18 <= 0
 + y16,19 - x19 <= 0
 + y16,39 - x39 <= 0
 + y16,40 - x40 <= 0
 - x40 = 1
 + y17,6 - x6 <= 0
 + y17,7 - x7 <= 0
 + y17,16 - x16 <= 0
 + y17,17 - x17 <= 0
 + y17,18 - x18 <= 0
 + y17,19 - x19 <= 0
 - x40 = 1
 + y18,6 - x6 <= 0
 + y18,7 - x7 <= 0
 + y18,16 - x16 <= 0
 + y18,17 - x17 <= 0
 + y18,18 - x18 <= 0
 + y18,19 - x19 <= 0
 - x40 = 1
 + y19,6 - x6 <= 0
 + y19,7 - x7 <= 0
 + y19,16 - x16 <= 0
 + y19,17 - x17 <= 0
 + y19,18 - x18 <= 0
 + y19,19 - x19 <= 0
 + y19,20 - x20 <= 0
 - x40 = 1
 + y20,6 - x6 <= 0
 + y20,7 - x7 <= 0
 + y20,19 - x19 <= 0
 + y20,20 - x20 <= 0
 - x40 = 1
 + y21,8 - x8 <= 0
 + y21,9 - x9 <= 0
 + y21,21 - x21 <= 0
 + y21,22 - x22 <= 0
 - x40 = 1
 + y22,8 - x8 <= 0
 + y22,9 - x9 <= 0
 + y22,10 - x10 <= 0
 + y22,21 - x21 <= 0
 + y22,22 - x22 <= 0
 + y22,23 - x23 <= 0
 + y22,24 - x24 <= 0
 + y22,25 - x25 <= 0
 - x40 = 1
 + y23,8 - x8 <= 0
 + y23,9 - x9 <= 0
 + y23,10 - x10 <= 0
 + y23,22 - x22 <= 0
 + y23,23 - x23 <= 0
 + y23,24 - x24 <= 0
 + y23,25 - x25 <= 0
 - x40 = 1
 + y24,8 - x8 <= 0
 + y24,9 - x9 <= 0
 + y24,10 - x10 <= 0
 + y24,22 - x22 <= 0
 + y24,23 - x23 <= 0
 + y24,24 - x24 <= 0
 + y24,25 - x25 <= 0
 - x40 = 1
 + y25,8 - x8 <= 0
 + y25,9 - x9 <= 0
 + y25,10 - x10 <= 0
 + y25,22 - x22 <= 0
 + y25,23 - x23 <= 0
 + y25,24 - x24 <= 0
 + y25,25 - x25 <= 0
 - x40 = 1
 + y26,9 - x9 <= 0
 + y26,10 - x10 <= 0
 + y26,11 - x11 <= 0
 + y26,26 - x26 <= 0
 + y26,27 - x27 <= 0
 - x40 = 1
 + y27,9 - x9 <= 0
 + y27,10 - x10 <= 0
 + y27,11 - x11 <= 0
 + y27,26 - x26 <= 0
 + y27,27 - x27 <= 0
 + y27,28 - x28 <= 0
 + y27,29 - x29 <= 0
 + y27,30 - x30 <= 0
 - x40 = 1
 + y28,10 - x10 <= 0
 + y28,11 - x11 <= 0
 + y28,27 - x27 <= 0
 + y28,28 - x28 <= 0
 + y28,29 - x29 <= 0
 + y28,30 - x30 <= 0
 - x40 = 1
 + y29,10 - x10 <= 0
 + y29,11 - x11 <= 0
 + y29,27 - x27 <= 0
 + y29,28 - x28 <= 0
 + y29,29 - x29 <= 0
 + y29,30 - x30 <= 0
 - x40 = 1
 + y30,10 - x10 <= 0
 + y30,11 - x11 <= 0
 + y30,12 - x12 <= 0
 + y30,27 - x27 <= 0
 + y30,28 - x28 <= 0
 + y30,29 - x29 <= 0
 + y30,30 - x30 <= 0
 + y30,31 - x31 <= 0
 + y30,32 - x32 <= 0
 - x40 = 1
 + y31,12 - x12 <= 0
 + y31,30 - x30 <= 0
 + y31,31 - x31 <= 0
 + y31,32 - x32 <= 0
 - x40 = 1
 + y32,12 - x12 <= 0
 + y32,30 - x30 <= 0
 + y32,31 - x31 <= 0
 + y32,32 - x32 <= 0
 - x40 = 1
 + y33,13 - x13 <= 0
 + y33,14 - x14 <= 0
 + y33,33 - x33 <= 0
 + y33,34 - x34 <= 0
 + y33,35 - x35 <= 0
 - x40 = 1
 + y34,13 - x13 <= 0
 + y34,14 - x14 <= 0
 + y34,33 - x33 <= 0
 + y34,34 - x34 <= 0
 + y34,35 - x35 <= 0
 - x40 = 1
 + y35,13 - x13 <= 0
 + y35,14 - x14 <= 0
 + y35,33 - x33 <= 0
 + y35,34 - x34 <= 0
 + y35,35 - x35 <= 0
 - x40 = 1
 + y36,13 - x13 <= 0
 + y36,14 - x14 <= 0
 + y36,15 - x15 <= 0
 + y36,36 - x36 <= 0
 + y36,37 - x37 <= 0
 + y36,38 - x38 <= 0
 - x40 = 1
 + y37,13 - x13 <= 0
 + y37,14 - x14 <= 0
 + y37,15 - x15 <= 0
 + y37,36 - x36 <= 0
 + y37,37 - x37 <= 0
 + y37,38 - x38 <= 0
 - x40 = 1
 + y38,13 - x13 <= 0
 + y38,14 - x14 <= 0
 + y38,15 - x15 <= 0
 + y38,36 - x36 <= 0
 + y38,37 - x37 <= 0
 + y38,38 - x38 <= 0
 - x40 = 1
 + y39,14 - x14 <= 0
 + y39,15 - x15 <= 0
 + y39,16 - x16 <= 0
 + y39,39 - x39 <= 0
 + y39,40 - x40 <= 0
 - x40 = 1
 + y40,14 - x14 <= 0
 + y40,15 - x15 <= 0
 + y40,16 - x16 <= 0
 + y40,39 - x39 <= 0
 + y40,40 - x40 <= 0
 - x40 = 1
Binary
 x6
 x7
 x8
 x9
 x10
 x11
 x12
 x13
 x14
 x15
 x16
 x17
 x18
 x19
 x20
 x21
 x22
 x23
 x24
 x25
 x26
 x27
 x28
 x29
 x30
 x31
 x32
 x33
 x34
 x35
 x36
 x37
 x38
 x39
 x40
 y6,6
 y6,7
 y6,14
 y6,15
 y6,16
 y6,17
 y6,18
 y6,19
 y6,20
 y7,6
 y7,7
 y7,8
 y7,16
 y7,17
 y7,18
 y7,19
 y7,20
 y8,7
 y8,8
 y8,9
 y8,10
 y8,21
 y8,22
 y8,23
 y8,24
 y8,25
 y9,8
 y9,9
 y9,10
 y9,11
 y9,21
 y9,22
 y9,23
 y9,24
 y9,25
 y9,26
 y9,27
 y10,8
 y10,9
 y10,10
 y10,11
 y10,12
 y10,13
 y10,22
 y10,23
 y10,24
 y10,25
 y10,26
 y10,27
 y10,28
 y10,29
 y10,30
 y11,9
 y11,10
 y11,11
 y11,12
 y11,13
 y11,26
 y11,27
 y11,28
 y11,29
 y11,30
 y12,10
 y12,11
 y12,12
 y12,13
 y12,14
 y12,30
 y12,31
 y12,32
 y13,10
 y13,11
 y13,12
 y13,13
 y13,14
 y13,15
 y13,33
 y13,34
 y13,35
 y13,36
 y13,37
 y13,38
 y14,6
 y14,12
 y14,13
 y14,14
 y14,15
 y14,16
 y14,33
 y14,34
 y14,35
 y14,36
 y14,37
 y14,38
 y14,39
 y14,40
 y15,6
 y15,13
 y15,14
 y15,15
 y15,16
 y15,36
 y15,37
 y15,38
 y15,39
 y15,40
 y16,6
 y16,7
 y16,14
 y16,15
 y16,16
 y16,17
 y16,18
 y16,19
 y16,39
 y16,40
 y17,6
 y17,7
 y17,16
 y17,17
 y17,18
 y17,19
 y18,6
 y18,7
 y18,16
 y18,17
 y18,18
 y18,19
 y19,6
 y19,7
 y19,16
 y19,17
 y19,18
 y19,19
 y19,20
 y20,6
 y20,7
 y20,19
 y20,20
 y21,8
 y21,9
 y21,21
 y21,22
 y22,8
 y22,9
 y22,10
 y22,21
 y22,22
 y22,23
 y22,24
 y22,25
 y23,8
 y23,9
 y23,10
 y23,22
 y23,23
 y23,24
 y23,25
 y24,8
 y24,9
 y24,10
 y24,22
 y24,23
 y24,24
 y24,25
 y25,8
 y25,9
 y25,10
 y25,22
 y25,23
 y25,24
 y25,25
 y26,9
 y26,10
 y26,11
 y26,26
 y26,27
 y27,9
 y27,10
 y27,11
 y27,26
 y27,27
 y27,28
 y27,29
 y27,30
 y28,10
 y28,11
 y28,27
 y28,28
 y28,29
 y28,30
 y29,10
 y29,11
 y29,27
 y29,28
 y29,29
 y29,30
 y30,10
 y30,11
 y30,12
 y30,27
 y30,28
 y30,29
 y30,30
 y30,31
 y30,32
 y31,12
 y31,30
 y31,31
 y31,32
 y32,12
 y32,30
 y32,31
 y32,32
 y33,13
 y33,14
 y33,33
 y33,34
 y33,35
 y34,13
 y34,14
 y34,33
 y34,34
 y34,35
 y35,13
 y35,14
 y35,33
 y35,34
 y35,35
 y36,13
 y36,14
 y36,15
 y36,36
 y36,37
 y36,38
 y37,13
 y37,14
 y37,15
 y37,36
 y37,37
 y37,38
 y38,13
 y38,14
 y38,15
 y38,36
 y38,37
 y38,38
 y39,14
 y39,15
 y39,16
 y39,39
 y39,40
 y40,14
 y40,15
 y40,16
 y40,39
 y40,40
End
